(set-info :Origin "This instance was generated by: BanditFuzz-- an RL fuzzer for SMT solvers" )
(set-info :Author "Joe Scott, Fed Mora, Vijay Ganesh" )
(set-info :Contact "Joe Scott, joseph.scott@uwaterloo.ca")
; solvers/z3.sh
; 	time => 0.14586472511291504
; 	answer => err
; solvers/bitwuzla.sh
; 	time => 0.13894867897033691
; 	answer => err
; solvers/cvc4.sh
; 	time => 0.1647789478302002
; 	answer => err
(set-logic QF_BV)
(declare-const bool_0 Bool)
(declare-const bool_1 Bool)
(declare-const bool_2 Bool)
(declare-const bool_3 Bool)
(declare-const bool_4 Bool)
(declare-const bv_0 (_ BitVec 8))
(declare-const bv_1 (_ BitVec 8))
(declare-const bv_2 (_ BitVec 8))
(declare-const bv_3 (_ BitVec 8))
(declare-const bv_4 (_ BitVec 8))
(assert (bvsle (bvsrem (bvmul bv_1 bv_4) (bvxnor #x00000098  bv_2)) (bvnand (bvudiv #x0000007e  #x00000028 ) (bvand #x000000ee  bv_2))))
(assert (bvsle (bvlshr (bvxor bv_2 #x0000009d ) (bvsdiv #x0000008a  bv_3)) (bvshl (bvsrem #x00000041  bv_4) (bvxor bv_4 bv_4))))
(assert (bvule (bvsrem (bvnor bv_3 bv_4) (bvlshr bv_2 #x0000006d )) (bvsmod (bvxnor bv_3 bv_3) (bvsdiv bv_4 bv_4))))
(assert (bvsgt (bvxnor (bvudiv #x0000009f  #x0000009e ) (bvurem bv_4 #x000000da )) (bvsdiv (bvand #x00000007  bv_0) (bvnand #x0000000e  #x00000042 ))))
(assert (bvsle (bvand (bvmul bv_2 #x0000009d ) (bvxor bv_2 bv_2)) (bvxnor (bvmul #x00000024  #x00000050 ) (bvashr bv_3 #x00000037 ))))
(check-sat)
(exit)
